NAME : RC105.15137.tour
COMMENT : Cost = 0_15137
COMMENT : Found by LKH [Keld Helsgaun] Wed Sep 13 20:10:47 2017
TYPE : TOUR
DIMENSION : 115
TOUR_SECTION
1
93
96
63
68
72
94
97
110
34
64
86
85
57
67
113
84
20
24
19
23
50
21
78
111
40
37
38
39
42
73
55
95
81
102
70
89
80
8
47
5
71
101
109
65
87
88
60
98
76
59
104
83
12
74
79
61
106
82
62
69
107
52
77
90
49
22
26
25
103
3
46
6
4
2
9
7
56
112
13
15
48
16
17
10
11
14
18
108
66
100
53
58
75
115
91
54
99
105
43
45
41
36
44
114
32
30
28
31
29
27
33
35
51
92
-1
EOF
